0 2 2
0 3 3
0 5 5
0 7 7
0 11 11
2 0 0
2 3 3
2 5 5
2 7 7
2 11 11
2 12 0
3 0 0
3 2 0
3 5 5
3 7 7
3 11 11
3 12 0
5 0 0
5 2 0
5 3 0
5 7 7
5 11 11
5 12 0
7 0 0
7 2 0
7 3 0
7 5 0
7 11 11
7 12 0
11 0 0
11 2 0
11 3 0
11 5 0
11 7 0
11 12 0
$
